
Gurobi 10.0.0 (win64) logging started Wed Apr 17 00:14:07 2024

Set parameter LogFile to value "C:\Users\ealvarezq\Documents\GitHub\Comillas\Models\JointResearch\05. Models\06.Benchmarking\E.Representative_days_based_on_Line_Benefits_OptModel\IEEE118_mod1_ByStages_nc200/openStarNet_IEEE118_mod1_ByStages_nc200.log"
Set parameter Method to value 2
Set parameter MIPFocus to value 1
Set parameter Presolve to value 2
Set parameter RINS to value 100
Set parameter MIPGap to value 0.01
Set parameter Threads to value 9
Set parameter TimeLimit to value 259200
Set parameter IterationLimit to value 760000000
Gurobi Optimizer version 10.0.0 build v10.0.0rc2 (win64)

CPU model: Intel(R) Core(TM) i7-8700 CPU @ 3.20GHz, instruction set [SSE2|AVX|AVX2]
Thread count: 6 physical cores, 12 logical processors, using up to 9 threads

Optimize a model with 284204 rows, 209901 columns and 731859 nonzeros
Model fingerprint: 0xc84e9258
Variable types: 209867 continuous, 34 integer (34 binary)
Coefficient statistics:
  Matrix range     [3e-04, 9e+03]
  Objective range  [1e+00, 1e+00]
  Bounds range     [1e-04, 3e+00]
  RHS range        [2e-04, 3e+00]
Presolve removed 192074 rows and 96429 columns
Presolve time: 1.42s
Presolved: 92130 rows, 113472 columns, 336883 nonzeros
Variable types: 113438 continuous, 34 integer (34 binary)
Root relaxation presolved: 92130 rows, 113472 columns, 336883 nonzeros

Root barrier log...

Ordering time: 0.02s

Barrier statistics:
 Dense cols : 34
 AA' NZ     : 4.169e+05
 Factor NZ  : 1.649e+06 (roughly 100 MB of memory)
 Factor Ops : 3.630e+07 (less than 1 second per iteration)
 Threads    : 8

                  Objective                Residual
Iter       Primal          Dual         Primal    Dual     Compl     Time
   0   8.95784739e+06 -3.43227904e+09  1.57e+01 2.72e+03  5.60e+04     2s
   1   2.16479459e+06 -1.33306138e+09  3.51e+00 1.70e-07  1.17e+04     2s
   2   5.44941877e+05 -5.00137669e+08  6.17e-01 5.24e-08  2.64e+03     2s
   3   3.14700400e+05 -1.27474269e+08  1.68e-01 1.17e-08  5.77e+02     2s
   4   2.12236615e+05 -1.78998722e+07  1.07e-02 2.82e-09  6.84e+01     2s
   5   1.41671818e+05 -4.44127472e+06  1.42e-03 6.46e-10  1.69e+01     2s
   6   1.00491182e+05 -1.21611313e+06  6.76e-04 1.58e-10  4.85e+00     2s
   7   5.52046951e+04 -3.74151322e+05  2.33e-04 4.44e-11  1.58e+00     2s
   8   2.26032202e+04 -9.37829914e+04  5.81e-05 1.17e-11  4.28e-01     3s
   9   1.44694096e+04 -3.85358832e+04  3.16e-05 7.96e-12  1.95e-01     3s
  10   8.23858044e+03 -1.81758603e+04  1.60e-05 5.15e-12  9.71e-02     3s
  11   4.36813587e+03 -5.49035626e+03  7.05e-06 6.31e-12  3.62e-02     3s
  12   2.60741352e+03 -2.98588147e+03  3.21e-06 4.90e-12  2.06e-02     3s
  13   2.05172909e+03 -1.23641788e+03  2.05e-06 9.83e-12  1.21e-02     3s
  14   1.75532757e+03 -5.37754188e+02  1.46e-06 1.04e-11  8.43e-03     3s
  15   1.58366363e+03 -4.91337040e+01  1.13e-06 9.65e-12  6.00e-03     3s
  16   1.44901103e+03  2.29536932e+02  8.81e-07 5.81e-12  4.48e-03     3s
  17   1.31781590e+03  5.03866464e+02  6.45e-07 5.38e-12  2.99e-03     3s
  18   1.21323789e+03  6.20556883e+02  4.89e-07 3.63e-12  2.18e-03     3s
  19   1.14697105e+03  7.11543836e+02  3.74e-07 2.87e-12  1.60e-03     3s
  20   1.11396059e+03  7.60623530e+02  3.23e-07 7.34e-12  1.30e-03     3s
  21   1.05171569e+03  8.24802432e+02  2.17e-07 6.86e-12  8.34e-04     3s
  22   1.00114120e+03  8.54017319e+02  1.31e-07 7.22e-12  5.41e-04     3s
  23   9.75383879e+02  8.80025671e+02  8.66e-08 8.85e-12  3.50e-04     3s
  24   9.56823137e+02  8.96230253e+02  5.47e-08 5.13e-12  2.23e-04     3s
  25   9.49843185e+02  8.99857726e+02  4.23e-08 5.16e-12  1.84e-04     3s
  26   9.44033279e+02  9.09605897e+02  3.22e-08 6.14e-12  1.26e-04     4s
  27   9.38873232e+02  9.13874986e+02  2.33e-08 8.37e-12  9.18e-05     4s
  28   9.33476850e+02  9.18518887e+02  1.44e-08 1.37e-11  5.50e-05     4s
  29   9.30097950e+02  9.21709347e+02  8.90e-09 6.16e-12  3.08e-05     4s
  30   9.28442223e+02  9.22438657e+02  6.12e-09 1.50e-11  2.21e-05     4s
  31   9.26765623e+02  9.23209333e+02  3.33e-09 6.65e-12  1.31e-05     4s
  32   9.25907007e+02  9.23813917e+02  1.92e-09 5.90e-12  7.69e-06     4s
  33   9.25266073e+02  9.24216298e+02  8.88e-10 1.05e-11  3.86e-06     4s
  34   9.24949248e+02  9.24366166e+02  3.88e-10 1.56e-11  2.14e-06     4s
  35   9.24814732e+02  9.24568423e+02  5.68e-10 1.24e-11  9.05e-07     4s
  36   9.24756833e+02  9.24641402e+02  8.90e-10 6.41e-12  4.24e-07     4s
  37   9.24716002e+02  9.24673329e+02  6.31e-10 6.62e-12  1.57e-07     4s
  38   9.24704543e+02  9.24683332e+02  1.99e-09 5.05e-12  7.79e-08     4s
  39   9.24693709e+02  9.24687693e+02  1.91e-09 1.20e-11  2.21e-08     4s
  40   9.24691064e+02  9.24690107e+02  6.44e-10 1.40e-11  3.52e-09     4s
  41   9.24690643e+02  9.24690494e+02  2.14e-10 9.97e-12  5.49e-10     4s
  42   9.24690577e+02  9.24690556e+02  1.45e-10 5.86e-12  7.71e-11     4s
  43   9.24690568e+02  9.24690568e+02  9.49e-11 5.92e-12  9.97e-13     4s

Barrier solved model in 43 iterations and 4.31 seconds (4.67 work units)
Optimal objective 9.24690568e+02


Root crossover log...

       0 DPushes remaining with DInf 3.3008633e-04                 5s

    1056 PPushes remaining with PInf 0.0000000e+00                 5s
       0 PPushes remaining with PInf 0.0000000e+00                 5s

  Push phase complete: Pinf 0.0000000e+00, Dinf 2.6897907e-11      5s


Root simplex log...

Iteration    Objective       Primal Inf.    Dual Inf.      Time
    8320    9.2469057e+02   0.000000e+00   0.000000e+00      5s
    8320    9.2469057e+02   0.000000e+00   0.000000e+00      6s

Root relaxation: objective 9.246906e+02, 8320 iterations, 3.83 seconds (4.54 work units)

    Nodes    |    Current Node    |     Objective Bounds      |     Work
 Expl Unexpl |  Obj  Depth IntInf | Incumbent    BestBd   Gap | It/Node Time

     0     0  924.69057    0   23          -  924.69057      -     -    6s
H    0     0                    7130.0692709  924.69057  87.0%     -   22s
     0     0  940.27888    0   21 7130.06927  940.27888  86.8%     -   35s
H    0     0                    2973.9410831  940.27888  68.4%     -   43s
     0     0  940.88283    0   21 2973.94108  940.88283  68.4%     -   44s
     0     0  940.88459    0   21 2973.94108  940.88459  68.4%     -   44s
     0     0  940.88459    0   21 2973.94108  940.88459  68.4%     -   45s
     0     0  943.49618    0   22 2973.94108  943.49618  68.3%     -   48s
     0     0  943.50625    0   22 2973.94108  943.50625  68.3%     -   49s
     0     0  944.71427    0   21 2973.94108  944.71427  68.2%     -   52s
     0     0  944.71549    0   21 2973.94108  944.71549  68.2%     -   53s
     0     0  944.74616    0   21 2973.94108  944.74616  68.2%     -   54s
     0     0  944.74694    0   21 2973.94108  944.74694  68.2%     -   55s
     0     0  944.96509    0   22 2973.94108  944.96509  68.2%     -   59s
H    0     0                    1045.1745262  944.96509  9.59%     - 1299s
     0     2  944.96509    0   22 1045.17453  944.96509  9.59%     - 1301s
     1     4  973.82396    1   20 1045.17453  944.97012  9.59% 10653 1316s
     3     8  995.21516    2   19 1045.17453  963.84595  7.78%  6424 1343s
     7    10     cutoff    3      1045.17453  970.57415  7.14%  6654 1416s
    15    13  982.87125    4   19 1045.17453  976.96010  6.53%  8150 1537s
    24    18  989.15278    5   17 1045.17453  982.89143  5.96%  9995 1594s
    33    25  991.04711    6   16 1045.17453  989.25086  5.35%  8937 1613s
    42    32 1002.21403    7   15 1045.17453  989.25086  5.35%  7795 1656s
    51    36 1010.57841    8   14 1045.17453  989.25086  5.35%  7386 1679s
    61    40 1024.29587    9   13 1045.17453  989.25086  5.35%  6677 1701s
    75    41     cutoff   11      1045.17453  989.25086  5.35%  5971 1729s
    88    36 1038.34404   12   10 1045.17453  989.25086  5.35%  5546 1771s
   103    28     cutoff   13      1045.17453  989.25086  5.35%  5393 1815s
   124    25     cutoff   13      1045.17453  991.22317  5.16%  5033 1870s
   145    40 1016.39540   10   11 1045.17453  991.22317  5.16%  4937 1901s
   174    36     cutoff   14      1045.17453  991.22317  5.16%  4472 1925s
   204    42     cutoff   13      1045.17453  991.22317  5.16%  3967 1955s
   232    38 1039.37679   12    8 1045.17453  991.22317  5.16%  3732 1987s
   271    39 1028.37355   10   11 1045.17453  991.22317  5.16%  3442 2019s
   316    42 1038.32280   11   10 1045.17453 1004.51119  3.89%  3160 2056s
   358    45 1005.43724    8   12 1045.17453 1004.54143  3.89%  3026 2082s
   408    32 1044.24058   12    7 1045.17453 1004.54143  3.89%  2795 2139s
   444    23     cutoff   12      1045.17453 1005.48380  3.80%  2836 2173s
   491    21     cutoff    7      1045.17453 1013.64690  3.02%  2723 2206s
   510     9     cutoff   13      1045.17453 1022.54212  2.17%  2743 2222s
   546     2     cutoff   12      1045.17453 1034.55221  1.02%  2616 2249s

Cutting planes:
  Gomory: 3
  Implied bound: 1
  MIR: 657
  Flow cover: 3
  Relax-and-lift: 24

Explored 557 nodes (1493855 simplex iterations) in 2249.88 seconds (5110.13 work units)
Thread count was 9 (of 12 available processors)

Solution count 3: 1045.17 2973.94 7130.07 

Optimal solution found (tolerance 1.00e-02)
Best objective 1.045174526158e+03, best bound 1.041248955180e+03, gap 0.3756%

Gurobi 10.0.0 (win64) logging started Wed Apr 17 00:51:49 2024

Set parameter LogFile to value "C:\Users\ealvarezq\Documents\GitHub\Comillas\Models\JointResearch\05. Models\06.Benchmarking\E.Representative_days_based_on_Line_Benefits_OptModel\IEEE118_mod1_ByStages_nc200/openStarNet_IEEE118_mod1_ByStages_nc200.log"
Set parameter Method to value 2
Set parameter MIPFocus to value 1
Set parameter Presolve to value 2
Set parameter RINS to value 100
Set parameter MIPGap to value 0.01
Set parameter Threads to value 9
Set parameter TimeLimit to value 259200
Set parameter IterationLimit to value 760000000
Gurobi Optimizer version 10.0.0 build v10.0.0rc2 (win64)

CPU model: Intel(R) Core(TM) i7-8700 CPU @ 3.20GHz, instruction set [SSE2|AVX|AVX2]
Thread count: 6 physical cores, 12 logical processors, using up to 9 threads

Optimize a model with 284204 rows, 209867 columns and 704625 nonzeros
Model fingerprint: 0x5459c801
Coefficient statistics:
  Matrix range     [3e-04, 9e+03]
  Objective range  [1e+00, 1e+00]
  Bounds range     [1e-04, 3e+00]
  RHS range        [2e-04, 3e+02]
Presolve removed 211233 rows and 91314 columns
Presolve time: 0.38s
Presolved: 72971 rows, 119172 columns, 283904 nonzeros

Ordering time: 0.02s

Barrier statistics:
 AA' NZ     : 2.396e+05
 Factor NZ  : 9.596e+05 (roughly 90 MB of memory)
 Factor Ops : 1.387e+07 (less than 1 second per iteration)
 Threads    : 9

                  Objective                Residual
Iter       Primal          Dual         Primal    Dual     Compl     Time
   0   1.54864179e+07 -2.09829742e+09  9.55e+01 1.84e+02  3.25e+04     0s
   1   1.70085201e+06 -6.44600325e+08  9.28e+00 3.64e-12  4.30e+03     1s
   2   4.25163964e+05 -1.11866953e+08  1.52e+00 3.64e-12  6.14e+02     1s
   3   1.85425610e+05 -1.42597302e+07  3.09e-02 2.73e-12  5.71e+01     1s
   4   1.07142800e+05 -1.80876728e+06  1.41e-03 1.09e-11  7.37e+00     1s
   5   5.20547237e+04 -5.77819435e+05  3.88e-04 3.18e-12  2.42e+00     1s
   6   2.93680156e+04 -1.90289603e+05  1.49e-04 8.81e-13  8.44e-01     1s
   7   1.94067801e+04 -5.71030478e+04  7.62e-05 6.32e-13  2.94e-01     1s
   8   7.09014822e+03 -2.22740023e+04  1.65e-05 7.11e-13  1.13e-01     1s
   9   4.72116051e+03 -1.30461848e+04  9.37e-06 7.16e-13  6.83e-02     1s
  10   3.21981869e+03 -5.37435665e+03  5.20e-06 6.18e-13  3.30e-02     1s
  11   2.45321503e+03 -2.89845493e+03  3.20e-06 8.90e-13  2.06e-02     1s
  12   1.82898080e+03 -7.69245954e+02  1.65e-06 5.19e-13  9.98e-03     1s
  13   1.52538164e+03 -3.68775408e+01  9.51e-07 5.71e-13  6.00e-03     1s
  14   1.30318990e+03  5.91395110e+02  4.68e-07 7.07e-13  2.73e-03     1s
  15   1.16688075e+03  8.49033857e+02  2.00e-07 6.79e-13  1.22e-03     1s
  16   1.11736964e+03  9.36480672e+02  1.11e-07 6.09e-13  6.95e-04     1s
  17   1.09357777e+03  9.76453733e+02  7.22e-08 4.48e-13  4.50e-04     1s
  18   1.07891388e+03  1.00005750e+03  4.89e-08 4.29e-13  3.03e-04     1s
  19   1.06969236e+03  1.01689272e+03  3.49e-08 4.71e-13  2.03e-04     1s
  20   1.06126480e+03  1.02546132e+03  2.24e-08 7.17e-13  1.38e-04     1s
  21   1.05369000e+03  1.03670884e+03  1.15e-08 5.28e-13  6.52e-05     1s
  22   1.04858375e+03  1.04194774e+03  4.43e-09 4.63e-13  2.55e-05     1s
  23   1.04652837e+03  1.04325641e+03  5.73e-09 7.04e-13  1.26e-05     1s
  24   1.04592962e+03  1.04418578e+03  6.07e-09 5.76e-13  6.70e-06     1s
  25   1.04551368e+03  1.04464549e+03  3.15e-09 3.62e-13  3.34e-06     1s
  26   1.04540543e+03  1.04490858e+03  2.26e-09 3.38e-13  1.91e-06     1s
  27   1.04523974e+03  1.04502848e+03  1.15e-09 3.74e-13  8.12e-07     1s
  28   1.04518731e+03  1.04514075e+03  7.75e-10 6.54e-13  1.79e-07     1s
  29   1.04517702e+03  1.04516904e+03  3.77e-10 6.63e-13  3.07e-08     1s
  30   1.04517490e+03  1.04517367e+03  7.22e-10 3.61e-13  4.74e-09     1s
  31   1.04517454e+03  1.04517448e+03  3.83e-10 4.98e-13  2.19e-10     2s
  32   1.04517453e+03  1.04517453e+03  1.29e-10 6.94e-13  4.10e-12     2s

Barrier solved model in 32 iterations and 1.57 seconds (1.58 work units)
Optimal objective 1.04517453e+03

Crossover log...

   20547 DPushes remaining with DInf 0.0000000e+00                 2s
       0 DPushes remaining with DInf 0.0000000e+00                 2s

     612 PPushes remaining with PInf 0.0000000e+00                 2s
       0 PPushes remaining with PInf 0.0000000e+00                 2s

  Push phase complete: Pinf 0.0000000e+00, Dinf 2.6701091e-12      2s

Extra simplex iterations after uncrush: 1
Iteration    Objective       Primal Inf.    Dual Inf.      Time
    8311    1.0451745e+03   0.000000e+00   0.000000e+00      3s

Solved in 8311 iterations and 2.52 seconds (2.70 work units)
Optimal objective  1.045174526e+03

Gurobi 11.0.0 (linux64) logging started Wed Aug  7 00:28:40 2024

Set parameter LogFile to value "/lustre1/scratch/348/vsc34888/JointResearch/05.Models/06.Benchmarking/E.Representative_days_based_on_Line_Benefits_OptModel/IEEE118_mod1_ByStages_nc200/openStarNet_IEEE118_mod1_ByStages_nc200.log"
Set parameter Method to value 2
Set parameter MIPFocus to value 1
Set parameter Presolve to value 2
Set parameter RINS to value 100
Set parameter MIPGap to value 0.01
Set parameter Threads to value 36
Set parameter TimeLimit to value 259200
Set parameter IterationLimit to value 760000000
Gurobi Optimizer version 11.0.0 build v11.0.0rc2 (linux64 - "Rocky Linux 8.9 (Green Obsidian)")

CPU model: Intel(R) Xeon(R) Gold 6240 CPU @ 2.60GHz, instruction set [SSE2|AVX|AVX2|AVX512]
Thread count: 36 physical cores, 36 logical processors, using up to 36 threads

Optimize a model with 284203 rows, 209867 columns and 704624 nonzeros
Model fingerprint: 0xec137364
Coefficient statistics:
  Matrix range     [3e-04, 9e+03]
  Objective range  [1e+00, 1e+00]
  Bounds range     [1e-04, 3e+00]
  RHS range        [2e-04, 3e+00]
Presolve removed 215201 rows and 98149 columns
Presolve time: 0.45s
Presolved: 69002 rows, 114898 columns, 274890 nonzeros

Ordering time: 0.02s

Barrier statistics:
 AA' NZ     : 2.413e+05
 Factor NZ  : 9.127e+05 (roughly 80 MB of memory)
 Factor Ops : 1.344e+07 (less than 1 second per iteration)
 Threads    : 36

                  Objective                Residual
Iter       Primal          Dual         Primal    Dual     Compl     Time
   0   1.65698975e+07 -1.05956867e+09  1.01e+02 5.87e+01  2.36e+04     1s
   1   1.64703278e+06 -4.03767163e+08  8.78e+00 2.17e-12  2.95e+03     1s
   2   4.09894938e+05 -8.05237255e+07  1.28e+00 2.32e-12  4.46e+02     1s
   3   1.86245569e+05 -1.27580960e+07  2.88e-02 2.27e-12  5.26e+01     1s
   4   1.13797765e+05 -1.65751505e+06  3.22e-03 8.19e-12  7.06e+00     1s
   5   7.06790676e+04 -6.98303111e+05  1.33e-03 3.52e-12  3.06e+00     1s
   6   5.32371943e+04 -2.43514701e+05  7.37e-04 1.14e-12  1.18e+00     1s
   7   3.54101284e+04 -1.18337710e+05  3.39e-04 5.54e-13  6.11e-01     1s
   8   2.85265654e+04 -5.15690814e+04  2.26e-04 4.55e-13  3.18e-01     1s
   9   2.15883440e+04 -2.25867993e+04  1.20e-04 4.55e-13  1.76e-01     1s
  10   1.76801058e+04 -6.62307769e+03  6.63e-05 4.55e-13  9.66e-02     1s
  11   1.52260704e+04  4.15709619e+03  3.70e-05 4.55e-13  4.40e-02     1s
  12   1.35542187e+04  8.62866649e+03  1.84e-05 4.55e-13  1.96e-02     1s
  13   1.26263327e+04  1.02807315e+04  8.79e-06 4.55e-13  9.32e-03     1s
  14   1.22668209e+04  1.07696070e+04  5.34e-06 4.55e-13  5.95e-03     1s
  15   1.20302637e+04  1.11287119e+04  3.15e-06 4.55e-13  3.58e-03     1s
  16   1.18835485e+04  1.13469645e+04  1.85e-06 4.55e-13  2.13e-03     1s
  17   1.17965815e+04  1.14803030e+04  1.11e-06 4.55e-13  1.26e-03     1s
  18   1.17115978e+04  1.15714188e+04  4.15e-07 6.82e-13  5.57e-04     1s
  19   1.16862057e+04  1.15987920e+04  2.24e-07 9.09e-13  3.47e-04     1s
  20   1.16690691e+04  1.16284999e+04  1.00e-07 4.55e-13  1.61e-04     1s
  21   1.16619391e+04  1.16414713e+04  5.18e-08 4.55e-13  8.13e-05     1s
  22   1.16558087e+04  1.16488116e+04  1.22e-08 4.55e-13  2.78e-05     1s
  23   1.16541951e+04  1.16529245e+04  2.63e-09 4.55e-13  5.05e-06     1s
  24   1.16537525e+04  1.16534785e+04  4.75e-10 4.55e-13  1.09e-06     1s
  25   1.16536628e+04  1.16535848e+04  2.07e-10 4.55e-13  3.10e-07     2s
  26   1.16536401e+04  1.16536172e+04  2.81e-10 4.55e-13  9.07e-08     2s
  27   1.16536352e+04  1.16536300e+04  9.53e-11 4.55e-13  2.06e-08     2s
  28   1.16536335e+04  1.16536329e+04  1.20e-10 4.55e-13  2.56e-09     2s
  29   1.16536334e+04  1.16536333e+04  1.65e-10 4.55e-13  1.50e-10     2s

Barrier solved model in 29 iterations and 1.71 seconds (1.36 work units)
Optimal objective 1.16536334e+04

Crossover log...

   20246 DPushes remaining with DInf 0.0000000e+00                 2s
       0 DPushes remaining with DInf 0.0000000e+00                 2s

    1510 PPushes remaining with PInf 0.0000000e+00                 2s
       0 PPushes remaining with PInf 0.0000000e+00                 2s

  Push phase complete: Pinf 0.0000000e+00, Dinf 3.3427524e-11      2s

Extra simplex iterations after uncrush: 31
Iteration    Objective       Primal Inf.    Dual Inf.      Time
    7699    1.1653633e+04   0.000000e+00   0.000000e+00      2s

Solved in 7699 iterations and 2.50 seconds (1.79 work units)
Optimal objective  1.165363337e+04

Gurobi 11.0.0 (linux64) logging started Wed Aug  7 00:29:52 2024

Set parameter LogFile to value "/lustre1/scratch/348/vsc34888/JointResearch/05.Models/06.Benchmarking/E.Representative_days_based_on_Line_Benefits_OptModel/IEEE118_mod1_ByStages_nc200/openStarNet_IEEE118_mod1_ByStages_nc200.log"
Set parameter Method to value 2
Set parameter MIPFocus to value 1
Set parameter Presolve to value 2
Set parameter RINS to value 100
Set parameter MIPGap to value 0.01
Set parameter Threads to value 36
Set parameter TimeLimit to value 259200
Set parameter IterationLimit to value 760000000
Gurobi Optimizer version 11.0.0 build v11.0.0rc2 (linux64 - "Rocky Linux 8.9 (Green Obsidian)")

CPU model: Intel(R) Xeon(R) Gold 6240 CPU @ 2.60GHz, instruction set [SSE2|AVX|AVX2|AVX512]
Thread count: 36 physical cores, 36 logical processors, using up to 36 threads

Optimize a model with 284203 rows, 209867 columns and 704624 nonzeros
Model fingerprint: 0xec137364
Coefficient statistics:
  Matrix range     [3e-04, 9e+03]
  Objective range  [1e+00, 1e+00]
  Bounds range     [1e-04, 3e+00]
  RHS range        [2e-04, 3e+00]
Presolve removed 215201 rows and 98149 columns
Presolve time: 0.44s
Presolved: 69002 rows, 114898 columns, 274890 nonzeros

Ordering time: 0.02s

Barrier statistics:
 AA' NZ     : 2.413e+05
 Factor NZ  : 9.127e+05 (roughly 80 MB of memory)
 Factor Ops : 1.344e+07 (less than 1 second per iteration)
 Threads    : 36

                  Objective                Residual
Iter       Primal          Dual         Primal    Dual     Compl     Time
   0   1.65698975e+07 -1.05956867e+09  1.01e+02 5.87e+01  2.36e+04     1s
   1   1.64703278e+06 -4.03767163e+08  8.78e+00 2.17e-12  2.95e+03     1s
   2   4.09894938e+05 -8.05237255e+07  1.28e+00 2.32e-12  4.46e+02     1s
   3   1.86245569e+05 -1.27580960e+07  2.88e-02 2.27e-12  5.26e+01     1s
   4   1.13797765e+05 -1.65751505e+06  3.22e-03 8.19e-12  7.06e+00     1s
   5   7.06790676e+04 -6.98303111e+05  1.33e-03 3.52e-12  3.06e+00     1s
   6   5.32371943e+04 -2.43514701e+05  7.37e-04 1.14e-12  1.18e+00     1s
   7   3.54101284e+04 -1.18337710e+05  3.39e-04 5.54e-13  6.11e-01     1s
   8   2.85265654e+04 -5.15690814e+04  2.26e-04 4.55e-13  3.18e-01     1s
   9   2.15883440e+04 -2.25867993e+04  1.20e-04 4.55e-13  1.76e-01     1s
  10   1.76801058e+04 -6.62307769e+03  6.63e-05 4.55e-13  9.66e-02     1s
  11   1.52260704e+04  4.15709619e+03  3.70e-05 4.55e-13  4.40e-02     1s
  12   1.35542187e+04  8.62866649e+03  1.84e-05 4.55e-13  1.96e-02     1s
  13   1.26263327e+04  1.02807315e+04  8.79e-06 4.55e-13  9.32e-03     1s
  14   1.22668209e+04  1.07696070e+04  5.34e-06 4.55e-13  5.95e-03     1s
  15   1.20302637e+04  1.11287119e+04  3.15e-06 4.55e-13  3.58e-03     1s
  16   1.18835485e+04  1.13469645e+04  1.85e-06 4.55e-13  2.13e-03     1s
  17   1.17965815e+04  1.14803030e+04  1.11e-06 4.55e-13  1.26e-03     1s
  18   1.17115978e+04  1.15714188e+04  4.15e-07 6.82e-13  5.57e-04     1s
  19   1.16862057e+04  1.15987920e+04  2.24e-07 9.09e-13  3.47e-04     1s
  20   1.16690691e+04  1.16284999e+04  1.00e-07 4.55e-13  1.61e-04     1s
  21   1.16619391e+04  1.16414713e+04  5.18e-08 4.55e-13  8.13e-05     1s
  22   1.16558087e+04  1.16488116e+04  1.22e-08 4.55e-13  2.78e-05     1s
  23   1.16541951e+04  1.16529245e+04  2.63e-09 4.55e-13  5.05e-06     1s
  24   1.16537525e+04  1.16534785e+04  4.75e-10 4.55e-13  1.09e-06     1s
  25   1.16536628e+04  1.16535848e+04  2.07e-10 4.55e-13  3.10e-07     1s
  26   1.16536401e+04  1.16536172e+04  2.81e-10 4.55e-13  9.07e-08     1s
  27   1.16536352e+04  1.16536300e+04  9.53e-11 4.55e-13  2.06e-08     1s
  28   1.16536335e+04  1.16536329e+04  1.20e-10 4.55e-13  2.56e-09     1s
  29   1.16536334e+04  1.16536333e+04  1.65e-10 4.55e-13  1.50e-10     2s

Barrier solved model in 29 iterations and 1.52 seconds (1.36 work units)
Optimal objective 1.16536334e+04

Crossover log...

   20246 DPushes remaining with DInf 0.0000000e+00                 2s
       0 DPushes remaining with DInf 0.0000000e+00                 2s

    1510 PPushes remaining with PInf 0.0000000e+00                 2s
       0 PPushes remaining with PInf 0.0000000e+00                 2s

  Push phase complete: Pinf 0.0000000e+00, Dinf 3.3427524e-11      2s

Extra simplex iterations after uncrush: 31
Iteration    Objective       Primal Inf.    Dual Inf.      Time
    7699    1.1653633e+04   0.000000e+00   0.000000e+00      2s

Solved in 7699 iterations and 2.21 seconds (1.79 work units)
Optimal objective  1.165363337e+04

Gurobi 11.0.0 (linux64) logging started Sat Sep 21 21:43:06 2024

Set parameter LogFile to value "/lustre1/scratch/348/vsc34888/JointResearch/05.Models/06.Benchmarking/E.Representative_days_based_on_Line_Benefits_OptModel/IEEE118_mod1_ByStages_nc200/openStarNet_IEEE118_mod1_ByStages_nc200.log"
Set parameter Method to value 2
Set parameter MIPFocus to value 1
Set parameter Presolve to value 2
Set parameter RINS to value 100
Set parameter MIPGap to value 0.01
Set parameter Threads to value 36
Set parameter TimeLimit to value 259200
Set parameter IterationLimit to value 760000000
Gurobi Optimizer version 11.0.0 build v11.0.0rc2 (linux64 - "Rocky Linux 8.9 (Green Obsidian)")

CPU model: Intel(R) Xeon(R) Gold 6240 CPU @ 2.60GHz, instruction set [SSE2|AVX|AVX2|AVX512]
Thread count: 36 physical cores, 36 logical processors, using up to 36 threads

Optimize a model with 284203 rows, 209814 columns and 704518 nonzeros
Model fingerprint: 0x305b1684
Coefficient statistics:
  Matrix range     [3e-04, 9e+03]
  Objective range  [1e+00, 1e+00]
  Bounds range     [1e-04, 3e+00]
  RHS range        [2e-04, 3e+00]
Presolve removed 215127 rows and 98074 columns
Presolve time: 0.43s
Presolved: 69076 rows, 114922 columns, 275314 nonzeros

Ordering time: 0.02s

Barrier statistics:
 AA' NZ     : 2.448e+05
 Factor NZ  : 8.968e+05 (roughly 80 MB of memory)
 Factor Ops : 1.285e+07 (less than 1 second per iteration)
 Threads    : 36

                  Objective                Residual
Iter       Primal          Dual         Primal    Dual     Compl     Time
   0   1.68102764e+07 -2.32296124e+09  9.25e+01 1.07e+02  4.75e+04     1s
   1   1.60141275e+06 -8.18722558e+08  7.57e+00 4.27e-12  5.74e+03     1s
   2   4.78080359e+05 -1.58095038e+08  1.43e+00 5.32e-12  9.27e+02     1s
   3   2.22039454e+05 -2.55572044e+07  4.13e-02 3.38e-12  1.06e+02     1s
   4   1.56887691e+05 -3.65261772e+06  4.92e-03 7.05e-12  1.52e+01     1s
   5   9.83144677e+04 -1.41050765e+06  1.87e-03 2.61e-12  6.01e+00     1s
   6   7.01454248e+04 -5.73226823e+05  9.34e-04 9.66e-13  2.56e+00     1s
   7   5.24789166e+04 -2.23538093e+05  5.21e-04 9.09e-13  1.10e+00     1s
   8   3.56687022e+04 -1.07712421e+05  2.52e-04 9.09e-13  5.70e-01     1s
   9   2.56303046e+04 -4.39049010e+04  1.21e-04 9.09e-13  2.76e-01     1s
  10   2.20189593e+04 -1.71231727e+04  8.28e-05 9.09e-13  1.55e-01     1s
  11   1.82470234e+04  2.31950008e+02  5.04e-05 9.09e-13  7.16e-02     1s
  12   1.50031160e+04  6.71723086e+03  2.34e-05 4.55e-13  3.29e-02     1s
  13   1.40288005e+04  9.47923289e+03  1.58e-05 9.09e-13  1.81e-02     1s
  14   1.32430797e+04  1.05475586e+04  9.78e-06 9.09e-13  1.07e-02     1s
  15   1.27133194e+04  1.10794608e+04  5.83e-06 9.09e-13  6.49e-03     1s
  16   1.24358210e+04  1.14072110e+04  3.81e-06 9.09e-13  4.09e-03     1s
  17   1.22439641e+04  1.16028145e+04  2.44e-06 9.09e-13  2.55e-03     1s
  18   1.20975955e+04  1.17646133e+04  1.48e-06 9.09e-13  1.32e-03     1s
  19   1.20027250e+04  1.18026800e+04  8.25e-07 9.09e-13  7.95e-04     1s
  20   1.19550607e+04  1.18431459e+04  5.04e-07 9.09e-13  4.45e-04     1s
  21   1.19244575e+04  1.18591853e+04  3.03e-07 1.82e-12  2.59e-04     1s
  22   1.18960845e+04  1.18686319e+04  1.21e-07 9.09e-13  1.09e-04     1s
  23   1.18825668e+04  1.18736356e+04  3.64e-08 4.55e-13  3.55e-05     1s
  24   1.18779585e+04  1.18755656e+04  8.46e-09 9.09e-13  9.51e-06     1s
  25   1.18770058e+04  1.18760053e+04  2.93e-09 4.55e-13  3.97e-06     1s
  26   1.18767040e+04  1.18762301e+04  1.28e-09 9.09e-13  1.88e-06     1s
  27   1.18765677e+04  1.18763892e+04  1.40e-09 1.82e-12  7.09e-07     1s
  28   1.18764793e+04  1.18764384e+04  5.63e-10 9.09e-13  1.62e-07     1s
  29   1.18764611e+04  1.18764568e+04  6.65e-10 1.36e-12  1.70e-08     1s
  30   1.18764590e+04  1.18764585e+04  3.63e-10 9.09e-13  2.09e-09     1s
  31   1.18764589e+04  1.18764589e+04  2.97e-10 9.09e-13  1.31e-10     1s

Barrier solved model in 31 iterations and 1.41 seconds (1.42 work units)
Optimal objective 1.18764589e+04

Crossover log...

   20165 DPushes remaining with DInf 0.0000000e+00                 2s
       0 DPushes remaining with DInf 0.0000000e+00                 2s

    1472 PPushes remaining with PInf 0.0000000e+00                 2s
       0 PPushes remaining with PInf 0.0000000e+00                 2s

  Push phase complete: Pinf 0.0000000e+00, Dinf 3.9482950e-11      2s

Extra simplex iterations after uncrush: 31
Iteration    Objective       Primal Inf.    Dual Inf.      Time
    7584    1.1876459e+04   0.000000e+00   0.000000e+00      2s

Solved in 7584 iterations and 2.15 seconds (1.87 work units)
Optimal objective  1.187645894e+04

Gurobi 11.0.0 (linux64) logging started Sat Sep 21 21:44:20 2024

Set parameter LogFile to value "/lustre1/scratch/348/vsc34888/JointResearch/05.Models/06.Benchmarking/E.Representative_days_based_on_Line_Benefits_OptModel/IEEE118_mod1_ByStages_nc200/openStarNet_IEEE118_mod1_ByStages_nc200.log"
Set parameter Method to value 2
Set parameter MIPFocus to value 1
Set parameter Presolve to value 2
Set parameter RINS to value 100
Set parameter MIPGap to value 0.01
Set parameter Threads to value 36
Set parameter TimeLimit to value 259200
Set parameter IterationLimit to value 760000000
Gurobi Optimizer version 11.0.0 build v11.0.0rc2 (linux64 - "Rocky Linux 8.9 (Green Obsidian)")

CPU model: Intel(R) Xeon(R) Gold 6240 CPU @ 2.60GHz, instruction set [SSE2|AVX|AVX2|AVX512]
Thread count: 36 physical cores, 36 logical processors, using up to 36 threads

Optimize a model with 284203 rows, 209814 columns and 704518 nonzeros
Model fingerprint: 0x305b1684
Coefficient statistics:
  Matrix range     [3e-04, 9e+03]
  Objective range  [1e+00, 1e+00]
  Bounds range     [1e-04, 3e+00]
  RHS range        [2e-04, 3e+00]
Presolve removed 215127 rows and 98074 columns
Presolve time: 0.43s
Presolved: 69076 rows, 114922 columns, 275314 nonzeros

Ordering time: 0.02s

Barrier statistics:
 AA' NZ     : 2.448e+05
 Factor NZ  : 8.968e+05 (roughly 80 MB of memory)
 Factor Ops : 1.285e+07 (less than 1 second per iteration)
 Threads    : 36

                  Objective                Residual
Iter       Primal          Dual         Primal    Dual     Compl     Time
   0   1.68102764e+07 -2.32296124e+09  9.25e+01 1.07e+02  4.75e+04     1s
   1   1.60141275e+06 -8.18722558e+08  7.57e+00 4.27e-12  5.74e+03     1s
   2   4.78080359e+05 -1.58095038e+08  1.43e+00 5.32e-12  9.27e+02     1s
   3   2.22039454e+05 -2.55572044e+07  4.13e-02 3.38e-12  1.06e+02     1s
   4   1.56887691e+05 -3.65261772e+06  4.92e-03 7.05e-12  1.52e+01     1s
   5   9.83144677e+04 -1.41050765e+06  1.87e-03 2.61e-12  6.01e+00     1s
   6   7.01454248e+04 -5.73226823e+05  9.34e-04 9.66e-13  2.56e+00     1s
   7   5.24789166e+04 -2.23538093e+05  5.21e-04 9.09e-13  1.10e+00     1s
   8   3.56687022e+04 -1.07712421e+05  2.52e-04 9.09e-13  5.70e-01     1s
   9   2.56303046e+04 -4.39049010e+04  1.21e-04 9.09e-13  2.76e-01     1s
  10   2.20189593e+04 -1.71231727e+04  8.28e-05 9.09e-13  1.55e-01     1s
  11   1.82470234e+04  2.31950008e+02  5.04e-05 9.09e-13  7.16e-02     1s
  12   1.50031160e+04  6.71723086e+03  2.34e-05 4.55e-13  3.29e-02     1s
  13   1.40288005e+04  9.47923289e+03  1.58e-05 9.09e-13  1.81e-02     1s
  14   1.32430797e+04  1.05475586e+04  9.78e-06 9.09e-13  1.07e-02     1s
  15   1.27133194e+04  1.10794608e+04  5.83e-06 9.09e-13  6.49e-03     1s
  16   1.24358210e+04  1.14072110e+04  3.81e-06 9.09e-13  4.09e-03     1s
  17   1.22439641e+04  1.16028145e+04  2.44e-06 9.09e-13  2.55e-03     1s
  18   1.20975955e+04  1.17646133e+04  1.48e-06 9.09e-13  1.32e-03     1s
  19   1.20027250e+04  1.18026800e+04  8.25e-07 9.09e-13  7.95e-04     1s
  20   1.19550607e+04  1.18431459e+04  5.04e-07 9.09e-13  4.45e-04     1s
  21   1.19244575e+04  1.18591853e+04  3.03e-07 1.82e-12  2.59e-04     1s
  22   1.18960845e+04  1.18686319e+04  1.21e-07 9.09e-13  1.09e-04     1s
  23   1.18825668e+04  1.18736356e+04  3.64e-08 4.55e-13  3.55e-05     1s
  24   1.18779585e+04  1.18755656e+04  8.46e-09 9.09e-13  9.51e-06     1s
  25   1.18770058e+04  1.18760053e+04  2.93e-09 4.55e-13  3.97e-06     1s
  26   1.18767040e+04  1.18762301e+04  1.28e-09 9.09e-13  1.88e-06     1s
  27   1.18765677e+04  1.18763892e+04  1.40e-09 1.82e-12  7.09e-07     1s
  28   1.18764793e+04  1.18764384e+04  5.63e-10 9.09e-13  1.62e-07     1s
  29   1.18764611e+04  1.18764568e+04  6.65e-10 1.36e-12  1.70e-08     1s
  30   1.18764590e+04  1.18764585e+04  3.63e-10 9.09e-13  2.09e-09     1s
  31   1.18764589e+04  1.18764589e+04  2.97e-10 9.09e-13  1.31e-10     1s

Barrier solved model in 31 iterations and 1.44 seconds (1.42 work units)
Optimal objective 1.18764589e+04

Crossover log...

   20165 DPushes remaining with DInf 0.0000000e+00                 2s
       0 DPushes remaining with DInf 0.0000000e+00                 2s

    1472 PPushes remaining with PInf 0.0000000e+00                 2s
       0 PPushes remaining with PInf 0.0000000e+00                 2s

  Push phase complete: Pinf 0.0000000e+00, Dinf 3.9482950e-11      2s

Extra simplex iterations after uncrush: 31
Iteration    Objective       Primal Inf.    Dual Inf.      Time
    7584    1.1876459e+04   0.000000e+00   0.000000e+00      2s

Solved in 7584 iterations and 2.20 seconds (1.87 work units)
Optimal objective  1.187645894e+04
